data;

/* Instância a ser resolvida*/

param m := 20;


param w := 1	92,
2	4,
3	43,
4	83,
5	84,
6	68,
7	92,
8	82,
9	6,
10	44,
11	32,
12	18,
13	56,
14	83,
15	25,
16	96,
17	70,
18	48,
19	14,
20	58
;

param beneficio := 1 44, 2 46, 3 90, 4 72, 5 91, 6 40, 7 75, 8 35, 9 8, 10 54, 11 78, 12 40, 13 77, 14 15, 15 61, 16 17, 17 75, 18 29, 19 75, 20 63;

param c := 878;

end;